files/example1.cnf
c generated from code
p cnf 21 53
-4 13 -8  0
-9 1 -7 8 -15  0
-16 2 0
5  0
-1  0
-6  0
-9  0
-11  0
1 5 0
1 -6 0
1 -8 0
1 -10 0
1 -12 0
1 -14 0
1 -16 0
1 -18 0
1 -20 0
5 -6 0
5 -8 0
5 -10 0
5 -12 0
5 -14 0
5 -16 0
5 -18 0
5 -20 0
-6 -8 0
-6 -10 0
-6 -12 0
-6 -14 0
-6 -16 0
-6 -18 0
-6 -20 0
-8 -10 0
-8 -12 0
-8 -14 0
-8 -16 0
-8 -18 0
-8 -20 0
-10 -12 0
-10 -14 0
-10 -16 0
-10 -18 0
-10 -20 0
-12 -14 0
-12 -16 0
-12 -18 0
-12 -20 0
-14 -16 0
-14 -18 0
-14 -20 0
-16 -18 0
-16 -20 0
-18 -20 0
