files/example1.sol
c ---- [ banner ] ------------------------------------------------------------
c
c Kissat SAT Solver
c 
c Copyright (c) 2021-2022 Armin Biere University of Freiburg
c Copyright (c) 2019-2021 Armin Biere Johannes Kepler University Linz
c 
c Version 3.0.0 97917ddf2b12adc6f63c7b2a5a403a1ee7d81836
c Apple clang version 14.0.0 (clang-1400.0.29.102) -W -Wall -O3 -DNDEBUG
c Sat Dec 10 11:11:30 CET 2022 Darwin guns.laas.fr 21.6.0 arm64
c
c ---- [ parsing ] -----------------------------------------------------------
c
c opened and reading DIMACS file:
c
c   ./files/example1.cnf
c
c parsed 'p cnf 21 53' header
c closing input after reading 497 bytes
c finished parsing after 0.00 seconds
c
c ---- [ solving ] -----------------------------------------------------------
c
c  seconds switched rate      trail variables
c         MB reductions conflicts glue  remaining
c          level restarts redundant irredundant
c
c *  0.00  0 0 0 0  0 0   0   0 0% 0  3  5 24%
c {  0.00  0 0 0 0  0 0   0   0 0% 0  3  5 24%
c }  0.00  0 0 0 0  0 0   0   0 0% 0  3  5 24%
c 1  0.00  0 0 0 0  0 0   0   0 0% 0  3  5 24%
c
c ---- [ result ] ------------------------------------------------------------
c
s SATISFIABLE
v -1 2 3 4 5 -6 7 -8 -9 -10 -11 -12 13 -14 15 -16 17 -18 19 -20 21 0
c
c ---- [ profiling ] ---------------------------------------------------------
c
c           0.00   18.78 %  parse
c           0.00   17.68 %  search
c           0.00    7.18 %  focused
c           0.00    0.00 %  simplify
c =============================================
c           0.00  100.00 %  total
c
c ---- [ statistics ] --------------------------------------------------------
c
c conflicts:                                0                0.00 per second
c decisions:                                5                0.00 per conflict
c propagations:                            17            12239    per second
c
c ---- [ resources ] ---------------------------------------------------------
c
c maximum-resident-set-size:       1409286144 bytes       1344 MB
c process-time:                                              0.00 seconds
c
c ---- [ shutting down ] -----------------------------------------------------
c
c exit 10
